NAME : local_5
TYPE : ATSP
DIMENSION : 5
EDGE_WEIGHT_TYPE : EXPLICIT
EDGE_WEIGHT_FORMAT : FULL_MATRIX
EDGE_WEIGHT_SECTION
0 277 906 294 10000000 
0 0 10000000 382 10000000 
0 10000000 0 736 819 
0 382 736 0 10000000 
0 10000000 10000000 10000000 0 
EOF